100
300
30
0 0
77 0
21 81
27 29
31 73
64 7
89 22
20 75
38 69
33 53
28 16
80 6
10 2
95 23
69 85
9 24
89 36
9 95
1 62
31 74
27 48
53 33
11 31
7 51
80 96
70 37
33 8
0 25
58 45
91 37
40 29
0 0
40
40
30
50
60
60
30
70
50
70
70
30
70
40
60
40
40
30
50
60
60
30
70
50
70
70
30
70
40
60
